c Output_time 26.03.2020 18:15:12_+0100 1585242912761840683
c ** Program information **
c program_name                          "QBRG_debug"
c version                               "0.3.20"
c date                                  "25.3.2020"
c gid_id                                "673970833836058123f633335630c185360d632e"
c author                                "Oliver Kullmann"
c url                                   "https://github.com/OKullmann/oklibrary/blob/master/Satisfiability/Transformers/Generators/Random/QBRG.cpp"
c ** Machine information **
c machine_name                          "chyna-Lenovo-G50-70"
c bogomips                              3791.08
c ** Compilation information **
c compiler_version                      "g++ 7.5.0"
c compilation_date                      "Mar_26_2020 11:16:30"
c compilation_options                   "--std=c++17 -pedantic -fmax-errors=5 -Wall -Wextra -g -D_GLIBCXX_DEBUG"
c NDEBUG                                0
c OPTIMIZE                              0
c ** Parameters **
c command-line                          "./QBRG_debug" "a40 e40 a40 40" "248*1,1|2-2,1|3-3,1|4-4,1" "" "1,t" ""
c output                                "QuBlRaGe_160_248_1585242912741661413.qdimacs"
c options                               "filtered,renamed"
c num_quantifier_blocks                 4
c  quantifier_blocks                    1:a1-40 2:e41-80 3:a81-120 4:e121-160
c num_clause-blocks                     1
c  clause-blocks                        248 * {1-40,1,1/2} | {41-80,1,1/2} | {81-120,1,1/2} | {121-160,1,1/2}
c num_e-seeds                           37+2=39
c  e-seeds                              1 0 1 0 5 160 2 40 0 40 1 40 0 40 1 248 4 1 1 1 1 2 2 2 1 1 2 3 3 1 1 2 4 4 1 1 2 1 1585242912741660793
p cnf 159 248
a 1 2 3 4 5 6 7 8 9 10 11 12 13 14 15 16 17 18 19 20 21 22 23 24 25 26 27 28 29 30 31 32 33 34 35 36 37 38 39 40 0
e 41 42 43 44 45 46 47 48 49 50 51 52 53 54 55 56 57 58 59 60 61 62 63 64 65 66 67 68 69 70 71 72 73 74 75 76 77 78 79 0
a 80 81 82 83 84 85 86 87 88 89 90 91 92 93 94 95 96 97 98 99 100 101 102 103 104 105 106 107 108 109 110 111 112 113 114 115 116 117 118 119 0
e 120 121 122 123 124 125 126 127 128 129 130 131 132 133 134 135 136 137 138 139 140 141 142 143 144 145 146 147 148 149 150 151 152 153 154 155 156 157 158 159 0
-21 72 84 -120 0
-17 -78 -98 -120 0
-29 58 102 -120 0
34 68 -113 -120 0
21 75 85 120 0
-40 57 87 120 0
36 -65 98 120 0
31 -45 111 120 0
24 49 114 120 0
-3 50 -87 -121 0
34 -54 87 -121 0
-16 74 -99 -121 0
16 52 112 -121 0
29 -75 -81 121 0
35 -51 -86 121 0
-4 46 92 121 0
10 -77 -89 -122 0
33 -78 89 -122 0
-30 54 96 -122 0
26 52 -114 -122 0
-7 54 115 -122 0
-25 52 -117 -122 0
17 77 -84 122 0
-37 78 -94 122 0
26 50 102 122 0
-4 -67 -110 122 0
14 45 89 123 0
23 -79 -84 -124 0
-14 -76 84 -124 0
36 -60 -105 -124 0
-30 -78 118 -124 0
-23 -72 -90 124 0
-17 41 -115 124 0
11 71 92 -125 0
27 -42 94 -125 0
-26 -72 -110 -125 0
-18 43 82 125 0
-37 67 93 125 0
25 -54 96 125 0
-10 41 -97 125 0
23 56 107 125 0
15 -72 -92 -126 0
-13 47 -85 126 0
-15 -59 -90 126 0
-17 50 -100 126 0
-30 -64 -103 126 0
-22 75 -102 -127 0
33 -66 -103 -127 0
8 -42 -106 -127 0
33 50 119 -127 0
-27 -62 97 127 0
14 58 110 127 0
12 45 -89 -128 0
5 -57 -94 -128 0
9 72 102 -128 0
40 -58 103 -128 0
-13 -50 -114 -128 0
28 54 98 128 0
15 -49 -110 128 0
-2 -56 92 -129 0
6 66 -96 -129 0
-2 56 -108 -129 0
32 48 108 -129 0
-6 70 114 -129 0
-26 -41 117 -129 0
-19 -47 117 -129 0
-35 -67 -81 129 0
22 49 81 129 0
-35 68 115 129 0
-10 67 -82 -130 0
30 51 87 -130 0
36 -78 -96 130 0
37 -67 -101 130 0
16 -71 112 130 0
13 -73 81 -131 0
33 77 -107 -131 0
-6 78 -115 -131 0
13 72 -104 131 0
31 73 87 -132 0
10 -61 109 -132 0
8 -73 -111 -132 0
-18 -43 -84 132 0
-14 56 -95 132 0
35 -75 105 132 0
26 68 111 132 0
-2 72 -117 132 0
-32 -61 -88 -133 0
-36 42 105 -133 0
8 72 -83 133 0
-33 -68 -90 133 0
-6 43 105 133 0
11 60 105 133 0
-27 42 108 133 0
-6 -46 -94 -134 0
-4 75 -97 -134 0
-40 -49 114 -134 0
-21 -73 -87 134 0
-35 -45 -104 134 0
3 79 -112 134 0
-11 49 -114 134 0
-18 -58 80 -135 0
23 -44 82 -135 0
-18 77 106 -135 0
-5 49 -113 -135 0
22 -47 -117 -135 0
18 -44 -81 135 0
18 55 -95 135 0
-19 -77 -101 135 0
-22 54 113 135 0
-8 65 -118 -136 0
7 -73 104 136 0
-11 61 82 -137 0
3 -43 100 -137 0
-7 -68 80 137 0
9 58 -87 137 0
-2 -69 -91 137 0
-18 64 99 137 0
-32 49 -93 -138 0
10 -50 -97 -138 0
14 77 92 138 0
8 45 -102 138 0
-35 73 104 138 0
-25 69 84 -139 0
6 -53 -89 -139 0
22 -55 90 -139 0
-10 73 110 -139 0
-20 48 101 139 0
35 -47 -116 139 0
28 64 -118 139 0
-1 74 86 -140 0
-12 -75 106 -140 0
-5 -65 -84 140 0
-31 73 -94 140 0
14 48 -97 140 0
27 79 108 140 0
-23 -65 -109 140 0
-14 -46 80 141 0
-37 51 -94 141 0
18 -52 -110 141 0
-31 63 118 141 0
-23 -68 103 -142 0
32 79 -116 -142 0
38 74 -109 142 0
-7 67 -112 142 0
-34 -70 113 142 0
29 -57 105 -143 0
-17 -70 85 143 0
-32 72 -90 143 0
-23 56 -94 143 0
16 59 -83 -144 0
34 -67 93 -144 0
-6 -61 97 -144 0
40 48 98 144 0
36 54 106 144 0
23 -47 108 144 0
7 49 -81 -145 0
28 -54 85 -145 0
16 -76 108 -145 0
-28 -51 80 -146 0
36 -48 84 -146 0
25 -59 -97 -146 0
-17 -71 113 -146 0
7 -47 -98 146 0
6 58 106 146 0
-2 65 -117 146 0
25 79 -92 -147 0
20 -59 95 -147 0
7 73 115 -147 0
37 -75 97 147 0
-33 -45 81 -148 0
-5 -61 -85 -148 0
13 -74 -88 -148 0
-14 50 -99 -148 0
-4 55 -109 -148 0
10 -43 -113 -148 0
11 50 83 148 0
33 72 94 148 0
-7 63 105 148 0
3 -65 -112 148 0
-29 59 112 148 0
39 51 -114 148 0
17 46 -102 -149 0
30 41 -80 149 0
37 53 -89 149 0
21 -66 116 149 0
-25 -54 118 149 0
-14 43 -94 -150 0
-10 58 94 -150 0
10 65 -97 -150 0
40 -67 -106 -150 0
-4 46 -92 150 0
-21 48 93 150 0
-25 44 95 150 0
-7 -50 -113 150 0
12 -52 114 150 0
-32 -53 -116 150 0
-5 53 -80 -151 0
-8 -64 90 -151 0
-20 61 85 151 0
-5 61 93 151 0
-24 51 -101 151 0
27 -52 -104 151 0
2 -70 -105 151 0
2 -79 114 151 0
7 68 103 -152 0
-26 -67 -107 -152 0
-3 68 109 -152 0
-19 75 81 -153 0
37 -79 91 -153 0
-19 -76 98 -153 0
-9 50 -107 -153 0
8 51 109 -153 0
-35 -58 82 153 0
4 52 97 153 0
33 -74 85 -154 0
-13 -42 -94 -154 0
-11 -55 89 154 0
5 48 96 154 0
18 61 83 -155 0
-14 -66 -89 -155 0
-31 62 -94 155 0
-30 -64 -81 -156 0
-21 -50 86 -156 0
-11 70 -100 -156 0
17 -44 97 156 0
4 73 111 156 0
-5 -68 -118 -157 0
3 -50 -80 157 0
36 -62 -82 157 0
12 69 -90 157 0
-35 -52 -97 157 0
-29 51 99 157 0
-15 -68 -111 157 0
-14 -77 -96 -158 0
-12 -68 101 -158 0
-6 68 -102 -158 0
-13 -65 -105 -158 0
16 76 -109 -158 0
-24 64 112 -158 0
33 73 117 -158 0
-31 75 80 158 0
-36 60 -115 158 0
18 -55 -97 -159 0
35 69 -82 159 0
25 42 87 159 0
-25 73 103 159 0
-5 45 -112 159 0
-22 52 119 159 0
